DIMENSION: 150
76
73
48
7
84
8
89
124
93
126
33
92
46
138
134
54
105
111
16
133
77
122
14
145
144
147
49
72
80
15
78
59
79
121
52
35
96
30
63
113
10
94
88
3
62
149
125
22
104
4
45
150
115
21
44
71
128
68
119
91
106
13
64
112
136
74
123
31
27
129
117
140
60
66
17
130
148
11
61
36
69
127
118
24
39
57
41
101
116
12
53
40
139
47
43
67
38
23
32
131
109
51
20
25
110
81
86
141
90
56
146
26
83
58
55
50
135
70
108
29
120
42
28
9
6
37
2
19
99
114
102
137
132
65
85
142
18
75
97
143
100
5
107
95
82
103
98
1
87
34
